import internal_belt.dzn;
import ingest.dzn;

component InternalBelt {
	provides iInternalBeltControl iBeltControl;
	
	system {
		InternalBeltControl beltControl;
		MotorControl m;
		PresSensorWhiteStack sW;
		PresSensorBlackStack sB;
		SensorEnd sE;
		
		iBeltControl <=> beltControl.beltControl;
		beltControl.motorControl <=> m.motorControl;
		beltControl.presSensorBlackStack <=> sB.sensorBlack;
		beltControl.presSensorWhiteStack <=> sW.sensorWhite;
		beltControl.sensorEnd <=> sE.sensorEnd;
	}
}

component SortingRobot {
	
}

